5

0   0   4   0   0
0   0   9   1   6
4   9   0   13   6
0   1   13   0   4
0   6   6   4   0

0   30   33   47   53
30   0   23   33   23
33   23   0   56   36
47   33   56   0   20
53   23   36  20   0